files/upTests/tupley7-1-4/0001.eprime.solution
language ESSENCE' 1.0
$ minion Nodes: 1
$ minion TotalTime: 0.000825
$ Savile Row TotalTime: 0.284
letting pain_tuple1_tuple3 be [[1]]
letting pain_tuple1_tuple4 be [[4]]
letting pain_tuple1_tuple1 be [[1]]
letting pain_tuple1_tuple2 be [[0]]
